c This is a random SAT instance with 10 variables and 20 clauses
p cnf 10 20
6 9 -8 0
-10 -9 -8 0
-2 3 7 6 -10 0
-10 9 8 -2 4 10 6 0
3 -3 5 10 9 -2 -8 -5 0
6 7 10 4 0
-2 -8 0
-5 6 -6 0
8 -3 3 -9 0
4 -7 -2 -6 3 -10 0
4 0
3 8 -4 1 7 -6 9 5 -5 0
-6 8 -9 5 0
-1 -4 -2 10 6 -3 -9 0
5 7 3 -10 -8 -4 2 -6 0
-4 -3 3 0
9 -8 -3 0
-1 -2 7 -9 -7 1 -6 3 2 -5 0
-4 3 9 -5 2 0
6 -3 -2 7 10 -8 0